Gurobi 9.1.2 (linux64) logging started Fri Mar  4 14:27:43 2022

Gurobi Optimizer version 9.1.2 build v9.1.2rc0 (linux64)
Thread count: 12 physical cores, 24 logical processors, using up to 1 threads
Optimize a model with 18160 rows, 18160 columns and 220515 nonzeros
Model fingerprint: 0x5efc3486
Model has 185761 quadratic objective terms
Variable types: 18120 continuous, 40 integer (40 binary)
Coefficient statistics:
  Matrix range     [2e-04, 1e+00]
  Objective range  [2e-38, 2e-03]
  QObjective range [2e-06, 4e-05]
  Bounds range     [1e+00, 1e+00]
  RHS range        [2e+00, 2e+00]
Found heuristic solution: objective 23.7589659
Presolve removed 3641 rows and 3641 columns
Presolve time: 0.75s
Presolved: 14519 rows, 14519 columns, 202257 nonzeros
Presolved model has 147463 quadratic objective terms
Variable types: 14479 continuous, 40 integer (40 binary)
Warning: Markowitz tolerance tightened to 0.125
Warning: Markowitz tolerance tightened to 0.5

Root simplex log...

Iteration    Objective       Primal Inf.    Dual Inf.      Time
    5258    2.0787756e+01   0.000000e+00   2.167207e+05      5s
    7115    1.7733929e+01   0.000000e+00   6.075006e+02     10s
    8672    1.3444869e+01   0.000000e+00   7.065374e+02     16s
    9982    1.3444869e+01   0.000000e+00   9.753891e+02     21s
   11158    1.3444869e+01   0.000000e+00   8.590955e+02     26s
   12196    1.3444869e+01   0.000000e+00   7.893339e+02     31s
   13200    1.3444869e+01   0.000000e+00   9.433689e+02     37s
   13836    1.3444869e+01   0.000000e+00   9.111906e+02     40s
   14755    1.3444869e+01   0.000000e+00   1.716584e+03     47s
   15225    1.3444869e+01   0.000000e+00   1.572418e+03     52s
   15349    7.5141740e+00   0.000000e+00   0.000000e+00     54s

Root relaxation: objective 7.514174e+00, 15349 iterations, 52.94 seconds

    Nodes    |    Current Node    |     Objective Bounds      |     Work
 Expl Unexpl |  Obj  Depth IntInf | Incumbent    BestBd   Gap | It/Node Time

     0     0    7.51417    0   40   23.75897    7.51417  68.4%     -   54s
     0     0    7.62339    0   40   23.75897    7.62339  67.9%     -   59s
H    0     0                      12.2695080    7.62339  37.9%     -   65s
     0     0    7.66429    0   40   12.26951    7.66429  37.5%     -   70s
     0     0    7.79915    0   40   12.26951    7.79915  36.4%     -   76s
     0     0    7.91487    0   40   12.26951    7.91487  35.5%     -   83s
     0     0    8.07768    0   40   12.26951    8.07768  34.2%     -   90s
     0     0    8.09901    0   40   12.26951    8.09901  34.0%     -   98s
     0     0    8.15441    0   40   12.26951    8.15441  33.5%     -  107s
     0     0    8.18773    0   40   12.26951    8.18773  33.3%     -  114s
     0     0    8.25375    0   40   12.26951    8.25375  32.7%     -  123s
     0     0    8.26801    0   40   12.26951    8.26801  32.6%     -  131s
     0     0    8.34354    0   40   12.26951    8.34354  32.0%     -  137s
     0     0    8.34878    0   40   12.26951    8.34878  32.0%     -  145s
     0     0    8.39522    0   40   12.26951    8.39522  31.6%     -  155s
     0     0    8.41575    0   40   12.26951    8.41575  31.4%     -  161s
     0     0    8.43661    0   40   12.26951    8.43661  31.2%     -  167s
     0     0    8.43676    0   40   12.26951    8.43676  31.2%     -  176s
     0     0    8.47860    0   40   12.26951    8.47860  30.9%     -  182s
     0     0    8.48899    0   40   12.26951    8.48899  30.8%     -  188s
     0     0    8.60932    0   40   12.26951    8.60932  29.8%     -  198s
     0     0    8.61417    0   40   12.26951    8.61417  29.8%     -  208s
     0     0    8.64242    0   40   12.26951    8.64242  29.6%     -  217s
     0     0    8.69506    0   40   12.26951    8.69506  29.1%     -  223s
     0     0    8.70297    0   40   12.26951    8.70297  29.1%     -  232s
     0     0    8.70344    0   40   12.26951    8.70344  29.1%     -  243s
     0     0    8.77344    0   40   12.26951    8.77344  28.5%     -  252s
     0     0    8.78365    0   40   12.26951    8.78365  28.4%     -  261s
     0     0    8.80649    0   40   12.26951    8.80649  28.2%     -  267s
     0     0    8.83133    0   40   12.26951    8.83133  28.0%     -  274s
     0     0    8.85127    0   40   12.26951    8.85127  27.9%     -  285s
     0     0    8.86414    0   40   12.26951    8.86414  27.8%     -  295s
     0     0    8.89633    0   40   12.26951    8.89633  27.5%     -  303s
     0     0    8.89659    0   40   12.26951    8.89659  27.5%     -  312s
     0     0    8.93002    0   40   12.26951    8.93002  27.2%     -  323s
     0     0    8.94506    0   40   12.26951    8.94506  27.1%     -  335s
     0     0    8.94510    0   40   12.26951    8.94510  27.1%     -  341s
     0     0    8.96424    0   40   12.26951    8.96424  26.9%     -  349s
     0     0    8.96937    0   40   12.26951    8.96937  26.9%     -  367s
     0     0    8.97024    0   40   12.26951    8.97024  26.9%     -  377s
     0     0    9.00881    0   40   12.26951    9.00881  26.6%     -  396s
     0     0    9.02405    0   40   12.26951    9.02405  26.5%     -  409s
     0     0    9.02848    0   40   12.26951    9.02848  26.4%     -  427s
     0     0    9.02852    0   40   12.26951    9.02852  26.4%     -  446s
     0     0    9.04323    0   40   12.26951    9.04323  26.3%     -  455s
     0     0    9.04580    0   40   12.26951    9.04580  26.3%     -  470s
     0     0    9.05082    0   40   12.26951    9.05082  26.2%     -  485s
     0     0    9.07661    0   40   12.26951    9.07661  26.0%     -  499s
     0     0    9.07692    0   40   12.26951    9.07692  26.0%     -  516s
     0     0    9.08705    0   40   12.26951    9.08705  25.9%     -  544s
     0     0    9.08714    0   40   12.26951    9.08714  25.9%     -  555s
     0     0    9.10098    0   40   12.26951    9.10098  25.8%     -  568s
     0     0    9.10751    0   40   12.26951    9.10751  25.8%     -  590s
     0     0    9.12256    0   40   12.26951    9.12256  25.6%     -  601s
     0     0    9.13153    0   40   12.26951    9.13153  25.6%     -  619s
     0     0    9.14832    0   40   12.26951    9.14832  25.4%     -  643s
     0     0    9.15971    0   40   12.26951    9.15971  25.3%     -  664s
     0     0    9.17310    0   40   12.26951    9.17310  25.2%     -  682s
     0     0    9.17347    0   40   12.26951    9.17347  25.2%     -  704s
     0     0    9.17864    0   40   12.26951    9.17864  25.2%     -  721s
     0     0    9.17884    0   40   12.26951    9.17884  25.2%     -  740s
     0     0    9.18090    0   40   12.26951    9.18090  25.2%     -  754s
     0     0    9.18604    0   40   12.26951    9.18604  25.1%     -  766s
     0     0    9.18757    0   40   12.26951    9.18757  25.1%     -  793s
     0     0    9.19166    0   40   12.26951    9.19166  25.1%     -  810s
     0     0    9.19246    0   40   12.26951    9.19246  25.1%     -  831s
     0     0    9.19461    0   40   12.26951    9.19461  25.1%     -  853s
     0     0    9.19565    0   40   12.26951    9.19565  25.1%     -  877s
     0     0    9.19566    0   40   12.26951    9.19566  25.1%     -  893s
     0     0    9.19803    0   40   12.26951    9.19803  25.0%     -  907s
     0     0    9.19936    0   40   12.26951    9.19936  25.0%     -  927s
     0     0    9.20327    0   40   12.26951    9.20327  25.0%     -  946s
     0     0    9.20582    0   40   12.26951    9.20582  25.0%     -  967s
     0     0    9.20695    0   40   12.26951    9.20695  25.0%     -  989s
     0     0    9.20717    0   40   12.26951    9.20717  25.0%     - 1011s
     0     0    9.20894    0   40   12.26951    9.20894  24.9%     - 1024s
     0     0    9.20895    0   40   12.26951    9.20895  24.9%     - 1046s
     0     0    9.21120    0   40   12.26951    9.21120  24.9%     - 1061s
     0     0    9.21125    0   40   12.26951    9.21125  24.9%     - 1081s
     0     0    9.21318    0   40   12.26951    9.21318  24.9%     - 1094s
     0     0    9.21669    0   40   12.26951    9.21669  24.9%     - 1114s
     0     0    9.21702    0   40   12.26951    9.21702  24.9%     - 1139s
     0     0    9.21974    0   40   12.26951    9.21974  24.9%     - 1163s
     0     0    9.22008    0   40   12.26951    9.22008  24.9%     - 1184s
     0     0    9.22021    0   40   12.26951    9.22021  24.9%     - 1206s
     0     0    9.22092    0   40   12.26951    9.22092  24.8%     - 1223s
     0     0   12.22486    0    3   12.26951   12.22486  0.36%     - 1275s
     0     2   12.23454    0    3   12.26951   12.23454  0.29%     - 1302s
     3     0     cutoff    1        12.26951   12.26951  0.00%   4.7 1305s

Cutting planes:
  Cover: 3
  Network: 26

Explored 4 nodes (16707 simplex iterations) in 1305.88 seconds
Thread count was 1 (of 24 available processors)

Solution count 2: 12.2695 23.759 

Optimal solution found (tolerance 1.00e-04)
Best objective 1.226950800250e+01, best bound 1.226950800250e+01, gap 0.0000%
